261100.99,17.76,19.45
261999.32,17.7,19.39
273393.87,16.96,18.58
280023.07,16.56,18.14
267816.0,17.32,18.97
259806.31,17.85,19.55
261262.37,17.75,19.44
264102.6,17.56,19.23
270746.22,17.13,18.76
269788.34,17.19,18.83
266859.78,17.38,19.04
264299.38,17.55,19.22
258631.77,17.93,19.64
269575.14,17.2,18.84
260831.44,17.78,19.47
253701.28,18.28,20.02
268269.83,17.29,18.94
272624.85,17.01,18.63
259012.18,17.9,19.61
271394.6,17.09,18.72
